NAME          
ROWS
 N  OBJ
 L  c1
COLUMNS
    MARKER    'MARKER'                 'INTORG'
    x[1]      c1        329
    x[1]      OBJ       -406
    x[2]      c1        -10
    x[2]      OBJ       -69
    x[3]      c1        904
    x[3]      OBJ       -863
    x[4]      c1        44
    x[4]      OBJ       -86
    x[5]      c1        567
    x[5]      OBJ       -662
RHS
    rhs       c1        917
RANGES
BOUNDS
 BV bounds    x[1]
 BV bounds    x[2]
 BV bounds    x[3]
 BV bounds    x[4]
 BV bounds    x[5]
ENDATA
